Version identifier: 12.10.0.0 | 2019-11-26 | 843d4de
CPXPARAM_WorkMem                                 28672
Tried aggregator 2 times.
MIP Presolve eliminated 8 rows and 0 columns.
MIP Presolve added 16 rows and 0 columns.
Aggregator did 40 substitutions.
Reduced MIP has 70 rows, 70 columns, and 320 nonzeros.
Reduced MIP has 70 binaries, 0 generals, 0 SOSs, and 0 indicators.
Presolve time = 0,00 sec. (0,64 ticks)
Found incumbent of value 1257,000000 after 0,00 sec. (0,74 ticks)
Probing fixed 8 vars, tightened 0 bounds.
Probing time = 0,00 sec. (0,38 ticks)
Tried aggregator 1 time.
MIP Presolve eliminated 8 rows and 8 columns.
Reduced MIP has 62 rows, 62 columns, and 272 nonzeros.
Reduced MIP has 62 binaries, 0 generals, 0 SOSs, and 0 indicators.
Presolve time = 0,00 sec. (0,19 ticks)
Probing time = 0,00 sec. (0,30 ticks)
Tried aggregator 1 time.
Detecting symmetries...
Reduced MIP has 62 rows, 62 columns, and 272 nonzeros.
Reduced MIP has 62 binaries, 0 generals, 0 SOSs, and 0 indicators.
Presolve time = 0,00 sec. (0,22 ticks)
Probing time = 0,00 sec. (0,29 ticks)
Clique table members: 249.
MIP emphasis: balance optimality and feasibility.
MIP search method: dynamic search.
Parallel mode: deterministic, using up to 16 threads.
Root relaxation solution time = 0,00 sec. (0,11 ticks)

        Nodes                                         Cuts/
   Node  Left     Objective  IInf  Best Integer    Best Bound    ItCnt     Gap

*     0+    0                         1257,0000      262,0000            79,16%
*     0+    0                         1225,0000      262,0000            78,61%
      0     0      787,8640    54     1225,0000      787,8640       14   35,68%
      0     0     1074,8414    54     1225,0000     Cuts: 112       73   12,26%
      0     0     1103,9035    54     1225,0000      Cuts: 90      107    9,89%
*     0+    0                         1202,0000     1103,9035             8,16%
      0     0        cutoff           1202,0000     1202,0000      107    0,00%
Elapsed time = 0,03 sec. (5,88 ticks, tree = 0,01 MB, solutions = 3)

Clique cuts applied:  2
Implied bound cuts applied:  21
Mixed integer rounding cuts applied:  1
Gomory fractional cuts applied:  7

Root node processing (before b&c):
  Real time             =    0,03 sec. (5,89 ticks)
Parallel b&c, 16 threads:
  Real time             =    0,00 sec. (0,00 ticks)
  Sync time (average)   =    0,00 sec.
  Wait time (average)   =    0,00 sec.
                          ------------
Total (root+branch&cut) =    0,03 sec. (5,89 ticks)
